Version identifier: 22.1.0.0 | 2022-03-09 | 1a383f8ce
CPXPARAM_Threads                                 1
CPXPARAM_MIP_Strategy_VariableSelect             3
CPXPARAM_TimeLimit                               599.994443918
Tried aggregator 1 time.
MIP Presolve eliminated 13 rows and 0 columns.
MIP Presolve modified 1 coefficients.
Reduced MIP has 1806 rows, 5700 columns, and 64262 nonzeros.
Reduced MIP has 5700 binaries, 0 generals, 0 SOSs, and 0 indicators.
Presolve time = 0.04 sec. (29.94 ticks)
Probing time = 0.01 sec. (3.96 ticks)
Tried aggregator 1 time.
Detecting symmetries...
Reduced MIP has 1806 rows, 5700 columns, and 64262 nonzeros.
Reduced MIP has 5700 binaries, 0 generals, 0 SOSs, and 0 indicators.
Presolve time = 0.04 sec. (37.22 ticks)
Probing time = 0.01 sec. (3.96 ticks)
Clique table members: 1193.
MIP emphasis: balance optimality and feasibility.
MIP search method: dynamic search.
Parallel mode: none, using 1 thread.
Root relaxation solution time = 1.41 sec. (1515.87 ticks)

        Nodes                                         Cuts/
   Node  Left     Objective  IInf  Best Integer    Best Bound    ItCnt     Gap

      0     0        0.0000  1293                      0.0000     5182         
      0     0        0.0000  1173                    Cuts: 25    10029         
      0     0        0.0000  1104                    Cuts: 29    14597         
      0     0        0.0000  1126                    Cuts: 20    19103         
      0     0        0.0000  1139                    Cuts: 35    25259         
      0     2        0.0000   828                      0.0000    25259         
Elapsed time = 75.25 sec. (79870.51 ticks, tree = 0.01 MB, solutions = 0)
      1     3        0.0000  1205                      0.0000    36011         
      2     4        0.0000  1216                      0.0000    43020         
      3     4        0.0000  1240                      0.0000    55434         
      4     5        0.0000  1240                      0.0000    61325         
      5     6        0.0000  1238                      0.0000    61333         
      6     7        0.0000  1294                      0.0000    62043         
      7     8        0.0000  1253                      0.0000    62157         
      8     9        0.0000  1260                      0.0000    62614         
      9    10        0.0000  1252                      0.0000    62616         
     11    12        0.0000  1223                      0.0000    63063         
Elapsed time = 92.05 sec. (98322.78 ticks, tree = 0.14 MB, solutions = 0)
     13    14        0.0000  1226                      0.0000    63800         
     16    16        0.0000  1220                      0.0000    65428         
     19    17        0.0000  1231                      0.0000    66062         
     22    17    infeasible                            0.0000    70504         
     25    20        0.0000  1240                      0.0000    71406         
     28    21        0.0000  1184                      0.0000    73829         
     31    22        0.0000  1199                      0.0000    75933         
     35    24        0.0000  1183                      0.0000    77710         
     38    27        0.0000  1131                      0.0000    83367         
     40    29        0.0000  1065                      0.0000    83897         
Elapsed time = 110.63 sec. (118591.61 ticks, tree = 0.42 MB, solutions = 0)
     42    29        0.0000  1037                      0.0000    96451         
     44    31        0.0000   978                      0.0000    97726         
     46    31        0.0000  1027                      0.0000   112901         
     48    33        0.0000  1029                      0.0000   115232         
     51    34        0.0000  1036                      0.0000   117288         
     55    34        0.0000  1037                      0.0000   120746         
     58    33    infeasible                            0.0000   123382         
     60    33    infeasible                            0.0000   130729         
     63    34        0.0000  1060                      0.0000   132961         
     65    34        0.0000  1015                      0.0000   135214         
Elapsed time = 127.96 sec. (137571.81 ticks, tree = 0.51 MB, solutions = 0)
     68    34        0.0000  1065                      0.0000   139031         
     71    35        0.0000  1009                      0.0000   140254         
     74    36        0.0000   994                      0.0000   144131         
     78    36        0.0000  1021                      0.0000   145066         
     81    35    infeasible                            0.0000   154402         
     82    36        0.0000   939                      0.0000   161646         
     88    36        0.0000   954                      0.0000   162493         
     90    36        0.0000   954                      0.0000   164193         
     93    36        0.0000   952                      0.0000   167400         
     96    37    infeasible                            0.0000   173657         
Elapsed time = 140.87 sec. (151798.32 ticks, tree = 0.57 MB, solutions = 0)
     99    38    infeasible                            0.0000   174923         
    101    38    infeasible                            0.0000   176183         
    104    39        0.0000   962                      0.0000   182262         
    106    39        0.0000   954                      0.0000   185313         
    110    39    infeasible                            0.0000   186772         
    112    39    infeasible                            0.0000   188625         
    114    39    infeasible                            0.0000   193804         
    117    40        0.0000   914                      0.0000   198350         
    120    39    infeasible                            0.0000   205274         
    122    39    infeasible                            0.0000   220545         
Elapsed time = 155.53 sec. (167460.75 ticks, tree = 0.61 MB, solutions = 0)
    125    40        0.0000   924                      0.0000   221981         
    127    40        0.0000   924                      0.0000   228447         
    130    39    infeasible                            0.0000   234395         
    132    39    infeasible                            0.0000   235801         
    134    39    infeasible                            0.0000   243698         
    136    39    infeasible                            0.0000   245306         
    138    39    infeasible                            0.0000   253270         
    139    40        0.0000   868                      0.0000   260798         
    141    40        0.0000   870                      0.0000   268142         
    144    41        0.0000   867                      0.0000   269282         
Elapsed time = 168.45 sec. (181325.74 ticks, tree = 0.61 MB, solutions = 0)
    148    43        0.0000   873                      0.0000   270821         
    152    43        0.0000   872                      0.0000   274074         
    155    42    infeasible                            0.0000   281076         
    157    42    infeasible                            0.0000   286053         
    160    43        0.0000   901                      0.0000   287457         
    163    42    infeasible                            0.0000   289824         
    165    42    infeasible                            0.0000   295064         
    168    43        0.0000   899                      0.0000   297143         
    170    43        0.0000   902                      0.0000   298577         
    172    43        0.0000   900                      0.0000   306128         
Elapsed time = 179.47 sec. (193439.99 ticks, tree = 0.61 MB, solutions = 0)
    175    42    infeasible                            0.0000   314748         
    178    43        0.0000   906                      0.0000   316191         
    181    42    infeasible                            0.0000   318332         
    183    42    infeasible                            0.0000   326285         
    186    43        0.0000   876                      0.0000   327448         
    189    42    infeasible                            0.0000   329870         
    192    43        0.0000   879                      0.0000   331687         
    196    43        0.0000   940                      0.0000   333484         
    199    42    infeasible                            0.0000   335602         
    201    42    infeasible                            0.0000   336878         
Elapsed time = 189.78 sec. (205039.77 ticks, tree = 0.61 MB, solutions = 0)
    204    43        0.0000   867                      0.0000   338877         
    205    42    infeasible                            0.0000   349799         
    208    43        0.0000   940                      0.0000   358591         
    211    42    infeasible                            0.0000   369692         
    213    42    infeasible                            0.0000   371835         
    215    42    infeasible                            0.0000   375290         
    217    42    infeasible                            0.0000   376550         
    219    42    infeasible                            0.0000   383417         
    221    42    infeasible                            0.0000   388703         
    225    42    infeasible                            0.0000   390437         
Elapsed time = 204.03 sec. (220695.33 ticks, tree = 0.61 MB, solutions = 0)
    228    43        0.0000   926                      0.0000   392051         
    230    43        0.0000   922                      0.0000   394294         
    232    43        0.0000   930                      0.0000   400749         
    234    43        0.0000   925                      0.0000   402280         
    236    43        0.0000   910                      0.0000   412501         
    240    43        0.0000   889                      0.0000   413903         
    242    43        0.0000   927                      0.0000   415953         
    245    42    infeasible                            0.0000   425346         
    248    43        0.0000   933                      0.0000   427172         
    256    43        0.0000   817                      0.0000   449208         
Elapsed time = 220.85 sec. (239059.21 ticks, tree = 0.61 MB, solutions = 0)
    265    42    infeasible                            0.0000   461444         
    272    43    infeasible                            0.0000   468207         
    280    43    infeasible                            0.0000   491882         
    288    43    infeasible                            0.0000   507943         
    296    43    infeasible                            0.0000   514529         
    304    43    infeasible                            0.0000   528865         
    309    44        0.0000   882                      0.0000   538727         
    320    45    infeasible                            0.0000   546604         
    329    46        0.0000   921                      0.0000   569536         
    339    46        0.0000   950                      0.0000   576852         
Elapsed time = 259.53 sec. (282257.66 ticks, tree = 0.62 MB, solutions = 0)
    352    45    infeasible                            0.0000   584592         
    356    47        0.0000   905                      0.0000   594913         
    367    47        0.0000   914                      0.0000   610560         
    369    45    infeasible                            0.0000   611067         
    383    47        0.0000   865                      0.0000   617000         
    394    46    infeasible                            0.0000   624870         
    400    46    infeasible                            0.0000   635924         
    402    46    infeasible                            0.0000   636264         
    412    50        0.0000   950                      0.0000   649718         
    422    50        0.0000   946                      0.0000   656853         
Elapsed time = 300.84 sec. (328038.91 ticks, tree = 0.63 MB, solutions = 0)
    431    49    infeasible                            0.0000   664327         
    435    49    infeasible                            0.0000   674569         
    447    49    infeasible                            0.0000   681915         
    452    50        0.0000   964                      0.0000   692924         
    460    50        0.0000   982                      0.0000   696741         
    470    50        0.0000   908                      0.0000   703714         
    475    48    infeasible                            0.0000   718915         
    480    49        0.0000   865                      0.0000   721724         
    489    48    infeasible                            0.0000   732181         
    498    49        0.0000   872                      0.0000   742930         
Elapsed time = 342.25 sec. (373794.74 ticks, tree = 0.63 MB, solutions = 0)
    508    49        0.0000   869                      0.0000   751502         
    517    48    infeasible                            0.0000   768632         
    525    48    infeasible                            0.0000   780049         
    529    48    infeasible                            0.0000   792154         
    540    49        0.0000   858                      0.0000   806360         
    548    49        0.0000   925                      0.0000   821831         
    559    49        0.0000   905                      0.0000   828488         
    567    49        0.0000   882                      0.0000   846948         
    576    48    infeasible                            0.0000   859880         
    585    49        0.0000   924                      0.0000   874823         
Elapsed time = 382.95 sec. (418512.51 ticks, tree = 0.63 MB, solutions = 0)
    594    48    infeasible                            0.0000   888179         
    601    49        0.0000   851                      0.0000   898045         
    612    50        0.0000   852                      0.0000   905194         
    620    52        0.0000   819                      0.0000   909476         
    626    51        0.0000   844                      0.0000   923856         
    628    49    infeasible                            0.0000   925172         
    629    48    infeasible                            0.0000   925234         
    641    46    infeasible                            0.0000   946074         
    648    47        0.0000   920                      0.0000   957291         
    659    46    infeasible                            0.0000   974500         
Elapsed time = 427.16 sec. (465793.84 ticks, tree = 0.62 MB, solutions = 0)
    669    46    infeasible                            0.0000   989114         
    680    47        0.0000   877                      0.0000   999996         
    689    46    infeasible                            0.0000  1017518         
    697    46    infeasible                            0.0000  1024676         
    699    46    infeasible                            0.0000  1049404         
    710    47        0.0000   866                      0.0000  1063437         
    720    47        0.0000   874                      0.0000  1081851         
    730    47        0.0000   833                      0.0000  1089673         
    741    46    infeasible                            0.0000  1103598         
    749    46    infeasible                            0.0000  1128460         
Elapsed time = 469.31 sec. (511335.78 ticks, tree = 0.62 MB, solutions = 0)
    759    46    infeasible                            0.0000  1139237         
    763    46    infeasible                            0.0000  1150310         
    773    46    infeasible                            0.0000  1164434         
    782    47        0.0000   956                      0.0000  1176826         
    795    46    infeasible                            0.0000  1184618         
    806    47        0.0000   875                      0.0000  1192286         
    810    47        0.0000   885                      0.0000  1204887         
    817    46    infeasible                            0.0000  1215762         
    828    47        0.0000   887                      0.0000  1223010         
    839    46    infeasible                            0.0000  1231356         
Elapsed time = 506.24 sec. (553222.30 ticks, tree = 0.62 MB, solutions = 0)
    847    50    infeasible                            0.0000  1236512         
    849    48    infeasible                            0.0000  1246582         
    850    47    infeasible                            0.0000  1246598         
    856    45    infeasible                            0.0000  1264036         
    868    45    infeasible                            0.0000  1272720         
    880    45    infeasible                            0.0000  1279581         
    884    45    infeasible                            0.0000  1290983         
    887    44    infeasible                            0.0000  1304784         
    896    43    infeasible                            0.0000  1322424         
    905    44        0.0000   827                      0.0000  1337080         
Elapsed time = 554.18 sec. (605235.02 ticks, tree = 0.61 MB, solutions = 0)
    914    43    infeasible                            0.0000  1350028         
    917    42    infeasible                            0.0000  1372419         
    919    42    infeasible                            0.0000  1401709         
    920    43        0.0000   861                      0.0000  1412674         
    930    42        0.0000   911                      0.0000  1429416         
    939    41        0.0000   904                      0.0000  1438818         
    950    40    infeasible                            0.0000  1447725         
    957    41        0.0000   891                      0.0000  1458230         

Clique cuts applied:  28
Zero-half cuts applied:  8

Root node processing (before b&c):
  Real time             =   75.20 sec. (79822.77 ticks)
Sequential b&c:
  Real time             =  524.80 sec. (574213.98 ticks)
                          ------------
Total (root+branch&cut) =  600.00 sec. (654036.75 ticks)
Primal:	2
Dual:	300
Status:	Feasible
Time:	600.033
Sequence:
	0
	10
